
  27    0


   0  13 2 3 4 5 6 7 12 13 22 23 24 25 26 
   1   5 18 11 10 9 8 
   6   4 21 17 15 9 
   8   3 20 18 8 
  10   2 19 16 
   1   2 16 15 
  10   2 15 14 
   2   1 16 
   6   1 14 
  10   1 17 
   8   1 15 
   5   1 14 
   1   1 14 
   7   1 27
   4   1 27
  10   1 27
   3   1 27
   5   1 27
   3   1 27
   9   1 27
   4   1 27
   6   1 27
   6   1 27
   3   1 27
   7   1 27
  10   1 27
   0   0 
